r_100_25_6
100
 52   0   0  59   0   0  16  79   0   0  82  39   0   0   0   0   0  39   0   0   0   0   0  73   0   0   0  59   0  12   0   0  82  93  70   0   0   0   0   0   0  75   0   0   0   0   0   0   0   0  58   0   0   0   0   0   0  14   0   0   0   0  72   0  82   0   0  83   0  24   0  71   0   0   0  98   0   0   0   0   0   0   0   0   0   0   0   0   0   0   0   0   0   0   0   0   0  20  73   0 
  0   0   0   0  88  17   0   0   0   0  80   0   0  53   6   0   0   0 100   0   0   0   0   0   0   0   1   0  40   0   0   0   0   0   0   0   0  77  75   0   0   0   0  42   0   0  51   0  14   0   0  98   0   0   0   0   0  54  81   0   0   0   0   0   0   0  31  66   0   0  67  52  72   0   0  61   0   0   0  12  10   0   0   0   0  79   0   0   0   0   0   0 100   0   0   0   0   0   0 
  0   0   0   0   0  99  47   0  35   0   0  72   0   0   0  58   0   0   0   0   0   0   0  91   0   0   0  91   0   0   0   0   0   0   7   0   0  17   0  64   0  69   0   0   0   0   0   0  60   0   0   0   0   9   0   0  15   0   0   1   0  63   0   0   0  36   0   0   0   0   0  60  59   0   0   0   0   0   0   0   0   0   7   0   7   0   0  41   0  67   0   0  38  29  38   0   0   0 
  0   0   0   0   0   0   0   0   0   0   0   0   0  26 100   0   0   0   0   0   0   0   0   0   0   0   0   0   0  66   0   0  67   0   0   0   0   0   0  74  22   0   0  89   0  40   0   0  79   0   4   0   0   0   0   0   0   0   0   0   0   0   0  46   0   0   0   0   0  14   0   0  96   0   0   0   0   0   0   0  13  14   0   0   0   0  48   0   0  63   0  37   0   0   0  70   0 
 30   0   0   0   0   4   0   0   0   0   0   0   0   0   0   0   0  34   0   0  40   0   0   0   0   0   0   0  46  60   0   0   0   0   0   0  16   0   0   0   0   0   0   0  84   0   0   0   0   0   4   0   0   0  46   0   0   0   0   0   0   0   0   0   0  81   0   0   0   0   0   0   0   0   0   0   0  38  27  58   0   0  44   0   0  50  95   0   0   0   4  69   0   0   0   0 
 78  82   0   0  66   0   0   0   0   0  23  25   8  25   0   0   0   0  13   0   0   0   0  24   0   0   0  35   0   0  10   0   0   0  18   0   0   0   0   0  67   0   0   0   0   4   0   0  46   0   0  64   0   0   0   0   0   0   0   0   0   0   0  74   0  60  46   0  15  61   0   0   0   0   0   0   0   0   0   0   0   0  56  30  94   0   0   0  51   0   0   0  62   0  39 
  0   0  96   0   0   0   0   0   0   0   0   0  38  22   0   0   0   0  25   0  44   0   0   0   0  65   0  92  16  41   0   0  21   0   0   0   0   0  14   0   0  47   0   0  17   0   0   0  27   0   0   0   0   0   0   0   0   0   0   0  10   0   0   0   0  17  43   3   0   7   0   0   0   0   0   0   0   0   0  88  29  47   0   0   0   0   0   0  18  86   0  69  23   0 
  0   0   0   0  18   2   0   0  21   0   0   7   0   0   0   0   0   0   0   0   0 100  26   0   0   0  72  22   0   0   0   0   0   0   9  36  29   0   0   0  27   0   0   0 100   0   0   0  41   0   3   0  95   0  78   0   0   0   4   0   0   0   0  15   0   0   0  83   0  48  87   0   0   0   0   0   0  29   0   0   0   0   0   0   0  41   0   0  80   0   0  82   0 
  0   0  36   0   0   0   0  41  52   0  87   0   0   0   0   0   0   0  52   0  12   0   0   0   0   6   0   0   6   0  87  24   0   2  27   0   0  85  63  15   0  95   0   0   5   0   0   0   0   0   0   0   0  76  69   0   0   0   0  36  45  47   0   0   0   0   0  59   0  52   0   0   0  17   0   0  10   0   0   0   0   0   0   0  54   0   0   0   0  67  20   0 
  0  49   0  52   0  23   0   0   0   0   0   0  53  36   4   0   0   0   0   0   0   0   0  88   0   0   0   0   0   0   0   0   0   0   0   0  86  87   0  59   0   0   0   0  13   0   0  26  57   0   0  20  35   0  81  42   0   0   0  58   0   0  53   0   0  24   0   0   0  33   0   0   0   0  42   0  65   0   0  67   0  88   0  60   0   0   0   0   0   0   0 
  0   0  80   0   0   0   0  38   0   0   0   0   0   0   0   0  84   0   0  53   0  32   0   0  15   0   4   0   0   0  44   0   0   0   0  86   0   0   0   0   0   0   0   0  80   0  31   0  78   0   0   0  82  12  59   0  83   0   0   0   0  85   0   0   0   0   0   0  33  79  62  41   0   0   0   0   0   0   0   0  18   0   0   0  44   0   0  90   0   0 
 53   0  25   0  12   0   0   0  29   0   0   0   0  59   0   0   0   0   0   0   0   0  39   0   0   0  24  18  36  42   0   0   0  68  26   9  63   0   0   0  81   0   0   0   0   0   0   0   0   0   0   0  88   0  61   0   0   0   0   0  89   0  22   0   0   0   0   0   0  73   0   0   0   0   0   0   0   0   0  15   0   0   0   0   0   0   0   0  57 
  0   0  72   0   0   4   0   0   0   0   0  82   0  68   0   0   2   0   0   0   0   0   0  23   0  86   0   0   0   0   0  31   0  80  10  58   0   0   0   0   0  96   0   0   0   0   0   0   0  91   0   0   0   0  27   0   0   9  88   0   0   0  64  49   0   0   0   0   0   0   0   0   0   0   0   0  66   0   0   0  54   0  20   0  94   0   0   0 
  0   0   0   0   0  49  36   0  70  64  72   0   0   0  81   0   0   0  57   0   0   0   0  50  33   3   0   0   0   0   0   0  36   0   0   0   0  18   0  66  57   0   0   0   0   0   0   0  28   0   0   0  38  95  95  41   0   0  61   0  17   0   0   0   0   0   0   0   0  31   0  89  81   0   0  30   0   0   0   0   0   7   0   0   0  28   0 
  0   0   0  14   0   0   0   0   0   0   0   0   0   0  18   0  51   0   0   0   0  79   0   0  61   0   0   0   0  29   0   0   0   0   0   0   0   0   0   0   0  63   0   0   0   0   0   0   0   0   0   0  34   0   0   0   0  89   0  36   0   0   0   0   0   0   0   0   0  42  27  65   0   0   0   0   0  25   0   0   0   0   0   0   0   0 
 73   5  37   0   0   0   0   0   8   0   0   0  67   0   0   0   0  97   0   0   0   0  76   0  78   0   0   0  36  34   0   0  98  89   0   0   0   0   0   0   0   0   0   0   0  83   0   0   0   0   0  16   0   0   0   0   0   0   0   0   0   0   0  78   0   0   0   0   0   0   0   0   0   0   0   0   0  63  51   0   0   0   0  99   0 
  0   0  39   0   0   0   0   0   0   0   0   0   0   0  26   0   0  91   0   0   0   0  20   0  43   0   0  68   0  69   0  52   0   0   0   0   8   0   0   0   0   3   0   0   0   0   0   0   0   0   0   0   0   0   0   0   0   0   0  28   0   0   0   0   0   0   0  11  78   0  58   0   0   0   0   0   0   0   0   0  94   0   0  73 
  0  86   0   0   0   0   0   0   0   0   0   0   0   0  97   0   0  12  63   0   0  16   0   0   0  57   0  51   0   0   0   0   0   0   0   0   0   0   0  28   0  72   0  61   0  24  97   0   0   0   0   0  49   0  86  79   0   0  93   0   0   0   0   0   0   0   0  49   0   0  28   0   0  63  16   0  15   0   0   0  51   0  79 
  0   0   0   0   0   0  89   5   0   0   0  37   2   0  31  85   0   0   0   0  89   0   0   0   0  31   0   0   0   0  15   0   0   0   0   0   0   0   0  49   0  60   0   0   0   0   0   0   0  10  45   0   0  39   0   0   0   0  83   0   0  98   0   0   0   0   0   0   0   0   0   7   0   0   0   0   0   0  71   0   0   0 
 93   0  58  47   0  46   0  12  38   0   0   0  21   0   0   0   0   0   0   0  36   0   0  11   0   0   0   0   0   0   0  37   0  37   0   0   0   0  35   0  33   0   0   0   0  72   0 100   0   1  32   0   0   0  38   0   0   0   0  67   0   0   0   0   0   0   0  94   0   0  53  10  85   0   0   0   0  20  11   0   1 
 51  55   0   0   0   0   0   0   0   0   0  57   0   0   0   0   0   0   0  80   0  44   0   0   0  67   0   0  53   0   0   0   0   0  64   0  79   0   0   0   0   0  25   0   0   0   0   0   0   0  63   0   0   0   0   0  94   0  40   0   0  90   0   0   0  56   0   0  16   0   0   0   0   0   0   0   0   0  75   0 
  0   0   0   0  33   0   0   0   0   0  18   0  17   0   0   0   6  69   0   0   0  32   0   0   0   0   0   0   0   0  58  43   0  58   0   0   0   0  30  91  19   0   0   2   0   0   0   0  27   0   0   0   8  31   0   0   0   0  59   0   0   0  92  21  71  43  43  35  70  62   0   0   0   0   0   0   0   0   0 
  0   0   0  38  32   0   0  25   0   0   0   0   0   0  42   0  56   0   0   0   0  85   0  82   0  95   0   0   0   0  68   0   0   0  96   0  35   0   0   0   0   0   0   0  31  95   0   0  90  53   0   0  45   0   0   0   0   0   0   0   0   0  93   0  72   0   0   0  81   0  13  62   0   0   0   0   0  19 
  0   0   0   0  49   0   0   0   0   0   0   0   0   0   0   0   0   0   0   0   5   0  64   0  66   0  20   0   0   0   0   0   0   0   0   0   0   0   0   0   5   0  30   0   0   0  19   0   0   0   0   0   0   0  52   0   0   0   0   0   0  35   0   0   0   0   0  51  62   0   0   0   0   0  14   0  94 
 48   0   0   0   0  31  81   0  76  57   0   0   0   0   0   3   0   0   0  23   0  28   0   0   0   0   0   0   0  97  43   0   0   0   0   0   0   0   0   0   0  97   0  12   0   0  25   0   0  35   2   0   0   0   0   0   0   0  16   0   0   0   0   0   0   0   0   7   0  30   0   0   0   0   0   0 
  0   0   0   0   0  86   0  11   0   0   0   0   0   0   0  24   0   0   0   0  48   0   0   0   0  41   0   0   0   0   0   0  45   0   0   0  70   0   0   0   0   0   4   0   0   0   0   0  81   0  13   0  25   0   0   0   0  97   0   0  67   0   0   6   0  57   0   0   0  66   0  93   0   0   0 
  0   0  81   0   0   0   0   0   0   0   0  73   0   0  69   0   0   0   0  87   0   0   0   0  99   0   0   0   0  98   0   0   0  79  88  50   0  34   0  84   0   0   0   0   0   0   0   0   0   0   0   0   0   0   0  49   0   0  86  88   0   0   0   0   0   0   0   0   0   0   0   0   0  73 
  0   0   0   3  89   0  63   0   0  38   0  97   0   0   0   0   0   0   0   0   0   0   0   0   0  88  58   0   0   0   6   0   0   0   0  98   0   0   0   0   0  45   0  19   0   0  37  58   0   0  88   0   0   0  69  77  99  40   0   0   0   0   0   0   0   0   0  50   0   0   0   0  91 
  0   0   0   0   0   0  97   0   0   0   0   0   0   0   0  77  24  38   0  50   0   0   0   0   0   0   0   0   0   0   0   0  68  65   6   0   0   0   0   0  34  98   0   6  56   0   0   0  48   0   0   0   0  59  18  12   0   0  65 100   0   0   0   0   0   0   0   0   0   0   0   0 
  0   0   0   0   0   0   0   0   0  47   0   0   0  22  62   0   0   0  37   0  89  51   0   0   0   0  94   0  14   0   0   0   0   0   0   0   0   0   0   0   0   0   0   0  57   0  36  68   0   0   0   0   0   0   8   0   0  98  52  45   0   0   0   0   0   0   0   0   0   0  85 
  0   0   0  16   0   0  59   0   0   0   0   0   0   0   0   0   0   0   0  19   0   0   0   0   0  67  38   0   0   0   0   0   0   0   0   0   0   0   0   0   0   0   0   0   0   0   0   8  91   0  74   0   0   0   0   0  52   0   0  39   0   0   0  61   0   0   0  91   0  88 
  0   9  81  25   0   0   0   0   0   0   0  30   0  66   0   0  66  27   0   0  23   0   8   0  32   0   0   0   0  13   6   0   0   0   0   0   0   0   0  65   0   0   0  54   0   0   0   0   0   0   0   0   0   0   0   0   0   0   0   0   0  94   0   0   0   0   0  32   0 
  0   0   0   0   0   0   0   0   0  95   0   0   0   0   0   0   0   0   0   0  58  77   0  74   0   0   0   0   0   0   0  31   0   0   0   0   0   0   0   0   0   0   0  47  65   0   0  93  28  89   0  25   0   0   0   0   0   0   0   0   0  50   0   0   0   0   0   0 
  0   0   0   0   0   0   0   0   0   0  90   0  57   0   0   0   0  31   0   0   0   0   0   0   0   0  34   0   0   0   0   0   0  71   0   0  35   0   0   0   0  97   0   0   0   0   0   0  45   0  72   0  98   0  13   0  36   0   0   0  55   0   0   0   0   0  23 
 45   0   0   0   0   0   0   0   0   0  15   0  22  79   0   0   0   0   0   0   0  25   0  48   0   0   0   0   0   0   0   0   0   0   0  76  44   0  86   0  14   0   0   0   0   0   0   0   5   0   0   0   0  23   0   0   0  74   0   0   0   0   0  59   0   0 
 57   0   0   0   0  71  46   0   0   0   0   0  41  77   0  18   0   0   0   0   0  80   0   0   6   0  79   0   0   0   0   0   0  31  50   0   0   0   0   0   0   0   2  92   0   0   0   0   3   0   0  48  98   0   0   0  63   0   0   0   0   0   0   0   0 
 57   0   0   0   0  79  10   0   0   0   4   0   0   0   0   0  41   0   0  49   0   0  74   0  97   0   0   0  45   0   0   0   0   0   0   0   0   0  76   0   0   0   0   0  62  58   0   0   0  44   0   0  63  69   6   0   0   0   0   0   0   0   0   0 
  0   0   9  28   0   0   0   0   0  54   0  11   7   0   0   0  34   0   0  46   0   0   0  14   0   0   0  18  29   8   0   0   0  35   0   0   0  12   0   0   3  73  29   0  16   0  27   0   0   0   0   0  87  19   0  61   0   0   0   0   0   0   0 
  0  94  92   0   0  21   0   0   0  33  31   1   0   0   0  56   0   0   0  73   0   0   0   0   0   0   0  95  44   0  47   0   0  48  87   0  48   0   0  27   0  47   0  12   0   0   0   0   0  16   0   0   0   7   0   0   0   0   0  52   0  73 
  0   0   0  42   0   0   0   0   0   0   0   0   0  54  66  92   0   0   0   0   0  79   0   0   0   0   0   0   0   0  15   0   0   0   9   0   0   0  86  57   0  89   0   0   0   0   0   0   0   0  64   0   0   0   0   0   0   0  71   0  53 
  0   0  58   0   0  32   0   0   0  29  52   0  57   0   0  90   0   0   0   0   0  98   0  23  85  85   0  49  38   0   0   0   0   0   0   0   7   0   0   0  10   0  61   0  92   0   0   0   0   0   0   0   0  12   0   0   0   0   0   0 
  0   0   0   1   0   0   0   0   0  50  21   0   0   0  89   0   0  23   0   0   0   0   0   0  62   0   0  27   0   0   0  41   0   0  20   0  88   0   0  91   0   0   0   0  70   0   0   0   0   0   0   0  59   0   0   0  38   0  54 
 68   0   0  61   0   0   0   0   0  54   0  27  19   0   0   0   0   0  13   0  22   0   0  23   0   0   0   0   0   0  65   0   3   0   0   0   0   0   0  69   0   0   0   0   0   0   0   0   0   0   0  12   0  40   0   0   0  83 
  0   0   0  96   0   0   0   0  92   0   0  18  91  28   0   0  30  45   0   0   0  64   0  16  17   0   0   0   0   0   0   0   0   0  56  86   0   0  37  68   0   0  64   0  56   0   0   0   0   0   0   0   0   0   0  51   0 
 58  37   0   0   6   0   0   0   0   0  15   0   0   0   0   0   0   0   0  27   0   0   0   0   0   0   0  99   0   0   0   0   0   0  18   0  32  65  13   0  85   0 100   0  29   0   0   0   0  39   0   4   0   0  81   0 
  0   0   0   0   0   0   0   0   0  75  91   0  28   0   0  86   0  57   0   0  70  90  27   0   0  38   0   0  83   0  85   0   0   0   0   0   0   0   0   0  87  83   0   0  39  37   0   0  12   0   0   0   0   0   0 
  0   0   0  98  96  83  72   0   0  85   0   0  18  37   0  41   0   0  44   0   0   8   0   0  68   0   0  13  25   0 100  21   0  10   0   0   0   0   0   0   0  55  86   0  78  22   9  45   0   0   0   0   0   0 
 99  71   0   0   0   1   0   0   0   0   0   0   0   0   0   0   0  44   0   0   0   0   0   0   0   0   0   0   0   0   0   0   0   0   0   0  24   0   0   0   0   0   0   0   0  30   0  34   0  99   0   0   0 
  0   0  47   0  88  44  66   0   0   0   2   0  98   0  58  46   0   0   0   0   0   0   0   0  68  78  95   0  60   0   0  91   0   0   0   0   0   0  37   0   0   0   0  94   0   0  12   0   0   0   0   0 
  0  69   0  88  96   0   0   0   0 100  11  93   0  96   0  87   0   0   0   0   0  25   0   0  54   9   0   0  13   0  66  54   0   0   0   0  98   0  10   0   0  16  46  70   0   0   0   0   0   0   0 
  0   0   0   0   5  59   0   0   0   0  18   0   0   0   0   0  18   0  18   0  21   0   0   0  66   0  18   0   0   0   0   0  76   0  41   0   0   0   0   0   0   0   0   0   0  55   0  71   0   0 
 59   0   0   0   0   0   0   0   0  69   0   0   0   0   0   0   0   0  77   0   0   0  38  72  26   0   0   0   0   9   0   2   0   0   0   0  58   0   0   0  59   0   0   0   0   0   0   0   0 
  0  40   0   0   0  50  60   0   0   0  99   0   0   0   0   0   0   0   0   0   0  10  17   0 100   0   0  86  77  40   0   0   0   0  16   0   0   0   2  19   0   0   0   0   0  19   0   0 
  0  95   0  83   0   0   0   0  86  90  83   0  90   0   8  64  58   0   0   0   0   0   0  68   0   0  16  75   0   0   0   0   0   0   0  87   0   0  38   0   0  58   0  94   0   0   0 
  0   0   0   0   0   0   0  98  64   0  66   0   0   0   0   0   0   0   0  85   0   0   0   0   0   0   0   0  24  60   1   0   0   0   0   0  77   0  12   0   0  63   0   0   0   0 
  0   0   0   0   0  92  57   0   0   0   5   0   0  10  17   0   0   0   0   0   0   0   0   0   0   0   0  48   0   0   0   0   8   0  80   0   0  54   0   0   0  70   0   0   0 
  0   0   0   0   0   0  99   0  61   0   0   0   0  98   0   0  56  45   0  16   0   0   0   0   0   0   0   0  81   0   0  77   0   0   0   0   0   0   0   0   0   0   0   0 
  0   0   0  42   0   0   0   0  10   0   0   0   0   0   0   0  41   0   0   0   0  84   0   0   0   0   0   0   0   0  41   0   0  39   0   8  82   0   5   0   0   0   0 
 85   0   0   0  34   0   0   0  41  79   0   0   0   0   0   0   0   5   0  20   0  83   0   0   0  13   0   0   0   0   0   0   0   0   0   0   0   0  27   0  87   0 
 98   0   0   0   0   0  82   0 100   0  13   0   0   0   0   0   0   0   0   0   0  41  77  19   0   0  70  58   0   0  30   0   0  13   0  11   0   0   0   0  21 
  0   0   0   0   0  49   0  11   0   0   0   0  22   0  26   0  62   0  70   0  83  47   0   0   0  64   0   0   0   0  41  40   0   0   0   0   0   0   0   3 
  0   0   0   0   0  92   0   0  97  73   0   0  10   0   0   0  88  58   0  79  56   0  52  10  38   0   0   0  87   3   0   0   0   0  17   0  19   0   0 
  0   0   0   0  47   2   0   0   0   0   0   0   0  48   0   0   0   0  29   5   0   0   0   0   0   0  86   0  58   0   0   0   0  66  20   0   0   0 
 14   0   0   0   0  64   0   0   0  91  32   0   0   0   0   0   0   0   0   0   0   0   0   0  99   0   0   0   0   0   0   0   0   0   0   0   0 
  0   0   0   0   0   0   2   0  97   0   0   0  71   0   0  43   0   0  47  18   0   0   0   0   0   0  35   0  43   0   0   0   0   0  12  91 
  0   0   0   0  71  42   0   0   0   0  36  37   0   0   0   0   0   0   0   0   0  36  13   0   0   0   0   0   0   0   0  41   0   0   0 
 53   0  19   0  95   0   0   0   0   0  34   2  97   0   0   0   0   0   0   0   0  55   0  98   0   0   0   0  82   0   0  76   0   0 
  0   0   0   0   0   0   0   0   0   0   0   0   0   0   0   0   0   0   0   0  12   0  85   0   0   0  52   0   1   0  28   0   0 
 70  83   0  19   0  83   0   0   0   0  69  19   0   0  76  11   0   0  28   0   0  34   0   0   0   0  15   0   0   0   0   0 
  0  73   0   0   0   0   0   0  20   0   0   0   0   1   0   0   0   0   0  29   0   0   0  40   0  54   0   0   0   0  27 
  0   0   0   0   0  54   0   0   0  97   0   0   0   0   0   0   0   0   5  13   0  89   0   0   0  38   0   0   0   0 
  0  98   0   0   0   0  88   0   0   0   0   0   0   0  67   0  80  61  71   0   0   0   0   0   0  39   0  52   0 
  0   0   0   0   0  29   0   0  92   0   0   0   0   0   0   0   0  45  86   0   0  69   4   0   0  61   0  24 
  0   0   0   0  64   0   0   0   0   0  75   0   0   1  43   0   0   0   0   0   0   0   0  92   0   0   0 
  0   0   0   0  52   0   0   0   0   0  78   0   0   0   0   0   0   0   0   0  78  91   0   0   0   0 
 85   0  45   0   0   0   0   0  48  79   0   0   0  40   0   0  47   0   0   0   0   0  85   0  58 
  0  53   0  10   0   0   0   0   0   0   0   0   0   0   0   0  25   0   0  68   0   0   0   0 
 48   0   0   0   0   0   0   0  18   0  24   5   0   0  33   9   0  32  94   0   0   0   0 
  0  50   0   0   0  61   0   0  47   0  37   0   0   0   0   0   0   0   0   0  27   0 
  0  87   0   0  29   0   0   0   0   0   0   0   0   0  40   0   0   0   0   0   0 
  0   0   0   0   0  67  31  53   0  81  39   0   0   0   0   0   0   0  81   0 
 60   0   0   0   0   9   0   0   0  13   0  68  68   0   0 100   0   0  49 
 15   0  50  92  43  70   0   0  85   0   2   0   0   0   0   5   0   0 
  0   0   4 100  98  57   0   0   0   0   0   0   0   0   0  67   0 
 97   0  32   0   0  62   0   0   0   0   0   0   0   0   0   0 
 82   0   0  16   0   0   1   0  58   0   0   0   0   0  74 
  0  79   0   0   0   0   0   0  27   0  40   0   0  93 
  0   0   0   0   0   0   0   0   0   0   0   0   0 
  0   0   0   0   0   0   0   0   0  31   0  46 
  0   0   0   0  17   0   0   0   0   0  74 
  0   0   0   0   0   0  31   0   0   0 
 57   0   0   0   0   8   0   0  97 
  0  89   0   0   0   0   0   0 
  0   0  60   0   0   0   0 
  0   0   0   0   0   0 
 53   0  61   0   0 
  0  44   0  26 
  0  93  69 
 42   0 
  0 

0
1236
  7  26  14  26  19  23  17  29  30  21   1  17  12  27  18  12  31  39   3   9  11  36  47   4   5   3  31  31  38  45  23  31  41  31  44  21  24  14  34  29  10  12  20  18  44  35  34  17  28  19  38   3  25   5   7  26  43  38  12   7  35  32  49  15   7   1  12  34  18  18  29   9  12  19   2  24  37  28  17  11  38  12  10  43  33  25  27  34   1  10  23   1  48   5  26  34  45  23  36  43 

Comments

Density             : 25.00 %

